Academic license - for non-commercial use only
Gurobi Optimizer version 9.0.3 build v9.0.3rc0 (mac64)
Optimize a model with 127786 rows, 120480 columns and 691170 nonzeros
Model fingerprint: 0x25a5603e
Variable types: 0 continuous, 120480 integer (120480 binary)
Coefficient statistics:
  Matrix range     [1e+00, 1e+00]
  Objective range  [1e+01, 5e+04]
  Bounds range     [1e+00, 1e+00]
  RHS range        [1e+00, 5e+02]
Presolve added 0 rows and 2970 columns
Presolve removed 30 rows and 0 columns
Presolve time: 1.53s
Presolved: 127756 rows, 123450 columns, 520110 nonzeros
Variable types: 0 continuous, 123450 integer (123450 binary)
Found heuristic solution: objective 484658.00000

Concurrent LP optimizer: dual simplex and barrier
Showing barrier log only...

Root barrier log...

Ordering time: 0.03s

Barrier statistics:
 Dense cols : 240
 AA' NZ     : 4.061e+05
 Factor NZ  : 1.637e+06 (roughly 120 MBytes of memory)
 Factor Ops : 2.201e+08 (less than 1 second per iteration)
 Threads    : 3

                  Objective                Residual
Iter       Primal          Dual         Primal    Dual     Compl     Time
   0   1.28277385e+08 -1.74256642e+08  2.82e+02 3.12e+01  1.63e+04     3s
   1   1.41490326e+06 -1.94541942e+08  7.17e+00 8.10e+03  7.72e+02     3s
   2   7.26488555e+05 -4.77030444e+07  1.77e+00 1.53e+03  1.65e+02     3s
   3   5.31022284e+05 -1.93590376e+07  2.41e-01 6.33e+02  5.61e+01     3s
   4   4.95827709e+05 -1.51841587e+06  1.84e-02 5.19e+01  5.47e+00     3s
   5   4.73426102e+05  9.71900242e+04  6.75e-03 6.36e+00  1.02e+00     4s
   6   4.62486898e+05  2.29290054e+05  5.68e-03 3.51e+00  6.29e-01     4s
   7   4.50698036e+05  3.04214505e+05  4.73e-03 1.70e+00  3.95e-01     4s
   8   4.42527155e+05  3.37766609e+05  4.12e-03 9.55e-01  2.82e-01     4s
   9   4.34831510e+05  3.55111190e+05  3.55e-03 5.92e-01  2.14e-01     4s
  10   4.26718312e+05  3.63934817e+05  2.97e-03 4.24e-01  1.69e-01     4s
  11   4.24434081e+05  3.66973214e+05  2.82e-03 3.68e-01  1.54e-01     4s
  12   4.18646332e+05  3.74057179e+05  2.39e-03 2.40e-01  1.20e-01     5s
  13   4.09999577e+05  3.78846390e+05  1.85e-03 1.41e-01  8.35e-02     5s
  14   4.07332270e+05  3.80362300e+05  1.68e-03 1.08e-01  7.23e-02     5s
  15   4.04798309e+05  3.81462197e+05  1.51e-03 8.13e-02  6.25e-02     5s
  16   4.01076549e+05  3.82473476e+05  1.23e-03 5.78e-02  4.98e-02     5s
  17   3.98198013e+05  3.83429656e+05  1.02e-03 3.70e-02  3.95e-02     5s
  18   3.94453946e+05  3.83844670e+05  7.50e-04 2.82e-02  2.84e-02     6s
  19   3.93481215e+05  3.84358288e+05  6.87e-04 1.86e-02  2.44e-02     6s
  20   3.91347332e+05  3.84575397e+05  5.21e-04 1.40e-02  1.81e-02     6s
  21   3.90424364e+05  3.84845849e+05  4.48e-04 9.48e-03  1.49e-02     6s
  22   3.89519530e+05  3.84952550e+05  3.69e-04 7.35e-03  1.22e-02     6s
  23   3.88883518e+05  3.85028285e+05  3.11e-04 5.87e-03  1.03e-02     6s
  24   3.88220195e+05  3.85076082e+05  2.58e-04 4.94e-03  8.41e-03     7s
  25   3.87532651e+05  3.85131419e+05  2.00e-04 3.94e-03  6.42e-03     7s
  26   3.87258774e+05  3.85185223e+05  1.77e-04 3.15e-03  5.54e-03     7s
  27   3.87035970e+05  3.85244044e+05  1.57e-04 2.22e-03  4.79e-03     7s
  28   3.86759454e+05  3.85261717e+05  1.32e-04 1.91e-03  4.00e-03     7s
  29   3.86479943e+05  3.85284308e+05  1.06e-04 1.54e-03  3.19e-03     7s
  30   3.86208321e+05  3.85300584e+05  8.25e-05 1.32e-03  2.42e-03     7s
  31   3.86087101e+05  3.85313871e+05  7.12e-05 1.10e-03  2.07e-03     8s
  32   3.86047609e+05  3.85319078e+05  6.71e-05 1.02e-03  1.95e-03     8s
  33   3.86011787e+05  3.85323757e+05  6.39e-05 9.44e-04  1.84e-03     8s
  34   3.85960019e+05  3.85333417e+05  5.84e-05 8.11e-04  1.67e-03     8s
  35   3.85843122e+05  3.85348411e+05  4.69e-05 5.79e-04  1.32e-03     8s
  36   3.85745663e+05  3.85357275e+05  3.69e-05 4.57e-04  1.04e-03     8s
  37   3.85695217e+05  3.85362781e+05  3.22e-05 3.74e-04  8.88e-04     8s
  38   3.85641532e+05  3.85368091e+05  2.66e-05 3.05e-04  7.30e-04     9s
  39   3.85604181e+05  3.85372159e+05  2.25e-05 2.50e-04  6.19e-04     9s
  40   3.85564908e+05  3.85375451e+05  1.85e-05 2.07e-04  5.06e-04     9s
  41   3.85525957e+05  3.85378413e+05  1.48e-05 1.71e-04  3.94e-04     9s
  42   3.85508812e+05  3.85382362e+05  1.31e-05 1.27e-04  3.37e-04     9s
  43   3.85485909e+05  3.85385097e+05  1.06e-05 9.82e-05  2.69e-04     9s
  44   3.85468277e+05  3.85387766e+05  8.59e-06 6.91e-05  2.15e-04    10s
  45   3.85458884e+05  3.85388868e+05  7.49e-06 5.53e-05  1.87e-04    10s
  46   3.85451188e+05  3.85389714e+05  6.63e-06 4.70e-05  1.64e-04    10s
  47   3.85442762e+05  3.85390691e+05  5.72e-06 4.69e-05  1.39e-04    10s
  48   3.85429840e+05  3.85391355e+05  4.27e-06 3.71e-05  1.03e-04    10s
  49   3.85419054e+05  3.85391961e+05  2.97e-06 2.80e-05  7.23e-05    10s
  50   3.85415637e+05  3.85392332e+05  2.56e-06 2.24e-05  6.22e-05    10s
  51   3.85409501e+05  3.85392624e+05  1.87e-06 1.82e-05  4.50e-05    11s
  52   3.85408824e+05  3.85392943e+05  1.80e-06 1.46e-05  4.23e-05    11s
  53   3.85404500e+05  3.85393063e+05  1.31e-06 1.31e-05  3.05e-05    11s
  54   3.85403049e+05  3.85393368e+05  1.13e-06 9.49e-06  2.58e-05    11s
  55   3.85400692e+05  3.85393394e+05  8.37e-07 9.22e-06  1.95e-05    11s
  56   3.85399091e+05  3.85393547e+05  6.40e-07 7.05e-06  1.48e-05    11s
  57   3.85398077e+05  3.85393705e+05  5.03e-07 5.43e-06  1.17e-05    11s
  58   3.85397242e+05  3.85393752e+05  4.10e-07 4.99e-06  9.30e-06    12s
  59   3.85396996e+05  3.85393854e+05  3.81e-07 3.95e-06  8.37e-06    12s
  60   3.85396063e+05  3.85393978e+05  2.49e-07 2.61e-06  5.55e-06    12s
  61   3.85395280e+05  3.85394058e+05  1.42e-07 1.92e-06  3.26e-06    12s
  62   3.85395214e+05  3.85394154e+05  1.33e-07 9.92e-07  2.82e-06    12s
  63   3.85394578e+05  3.85394193e+05  4.23e-08 6.45e-07  1.03e-06    12s
  64   3.85394315e+05  3.85394263e+05  6.25e-09 2.37e-07  1.39e-07    13s
  65   3.85394296e+05  3.85394264e+05  1.06e-07 1.26e-07  8.61e-08    13s
  66   3.85394296e+05  3.85394264e+05  1.06e-07 1.26e-07  8.60e-08    13s
  67   3.85394295e+05  3.85394264e+05  1.06e-07 1.26e-07  8.60e-08    13s
  68   3.85394296e+05  3.85394264e+05  1.06e-07 1.34e-08  8.60e-08    13s

Barrier solved model in 68 iterations and 13.09 seconds
Optimal objective 3.85394296e+05


Root crossover log...

   55814 DPushes remaining with DInf 0.0000000e+00                13s
       0 DPushes remaining with DInf 0.0000000e+00                14s

     896 PPushes remaining with PInf 1.7181651e-05                14s
       0 PPushes remaining with PInf 0.0000000e+00                14s

  Push phase complete: Pinf 0.0000000e+00, Dinf 7.6205882e+01     15s


Root simplex log...

Iteration    Objective       Primal Inf.    Dual Inf.      Time
    8185    3.8539426e+05   0.000000e+00   7.620588e+01     15s
    8197    3.8539426e+05   0.000000e+00   0.000000e+00     15s

Solved with barrier

Root relaxation: objective 3.853943e+05, 8197 iterations, 12.20 seconds
Total elapsed time = 15.16s

    Nodes    |    Current Node    |     Objective Bounds      |     Work
 Expl Unexpl |  Obj  Depth IntInf | Incumbent    BestBd   Gap | It/Node Time

     0     0 385394.265    0 9526 484658.000 385394.265  20.5%     -   16s
H    0     0                    395017.00000 385394.265  2.44%     -   17s
H    0     0                    393054.00000 385394.265  1.95%     -   24s
     0     0 385395.794    0 9836 393054.000 385395.794  1.95%     -   29s
     0     0 385396.791    0 9849 393054.000 385396.791  1.95%     -   31s
     0     0 385407.440    0 9890 393054.000 385407.440  1.95%     -   36s
     0     0 385407.875    0 9877 393054.000 385407.875  1.95%     -   37s
     0     0 385410.321    0 9859 393054.000 385410.321  1.94%     -   39s
     0     0 385410.329    0 9552 393054.000 385410.329  1.94%     -   39s
     0     0 385418.626    0 10328 393054.000 385418.626  1.94%     -   46s
     0     0 385420.662    0 10345 393054.000 385420.662  1.94%     -   47s
     0     0 385420.917    0 10346 393054.000 385420.917  1.94%     -   48s
     0     0 385421.281    0 10327 393054.000 385421.281  1.94%     -   48s
     0     0 385421.309    0 10326 393054.000 385421.309  1.94%     -   48s
     0     0 385427.868    0 10371 393054.000 385427.868  1.94%     -   55s
     0     0 385430.010    0 10366 393054.000 385430.010  1.94%     -   57s
     0     0 385430.039    0 10379 393054.000 385430.039  1.94%     -   57s
     0     0 385439.849    0 10379 393054.000 385439.849  1.94%     -   64s
H    0     0                    393043.00000 385439.849  1.93%     -   73s
     0     0 385440.086    0 10366 393043.000 385440.086  1.93%     -   73s
     0     0 385440.132    0 10364 393043.000 385440.132  1.93%     -   73s
     0     0 385440.132    0 10364 393043.000 385440.132  1.93%     -   75s
     0     0 385440.135    0 10361 393043.000 385440.135  1.93%     -   76s
     0     0 385446.816    0 10390 393043.000 385446.816  1.93%     -   83s
     0     0 385447.591    0 10403 393043.000 385447.591  1.93%     -   85s
     0     0 385447.592    0 10401 393043.000 385447.592  1.93%     -   85s
     0     0 385447.593    0 10403 393043.000 385447.593  1.93%     -   87s
     0     0 385455.630    0 10096 393043.000 385455.630  1.93%     -   95s
     0     0 385455.990    0 10417 393043.000 385455.990  1.93%     -   96s
     0     0 385455.991    0 10416 393043.000 385455.991  1.93%     -   97s
     0     0 385455.991    0 10393 393043.000 385455.991  1.93%     -  107s
H    0     2                    393014.00000 385455.991  1.92%     -  127s
     0     2 385455.991    0 10393 393014.000 385455.991  1.92%     -  127s
     1     4 385520.498    1 10659 393014.000 385456.185  1.92%  5662  151s
     3     8 385797.783    2 11022 393014.000 385520.935  1.91%  9589  196s
     7    12 385924.972    3 10539 393014.000 385797.829  1.84% 11261  245s
    11    16 386121.253    3 9954 393014.000 385924.978  1.80%  9524  271s
    15    20 385938.041    4 10466 393014.000 385924.978  1.80%  9581  278s
H   18    20                    390579.00000 385924.978  1.19%  8393  279s
    19    22 386167.932    5 10828 390579.000 385924.978  1.19%  8482  300s

Cutting planes:
  Gomory: 2
  Zero half: 152

Explored 21 nodes (188540 simplex iterations) in 300.09 seconds
Thread count was 8 (of 8 available processors)

Solution count 6: 390579 393014 393043 ... 484658

Time limit reached
Best objective 3.905790000000e+05, best bound 3.859250000000e+05, gap 1.1916%

User-callback calls 24784, time in user-callback 0.15 sec
Solution written to /Users/mdeboute/Desktop/Etudes/Master/M2/S9/GOPP/Projet/multi-period-flp/solution/instMulti_I30_J500_T8_0_result.txt
